OS/data/amplFiles/eastborne.nl
g3 2 1 0	# problem eastborne
 2 1 1 0 0	# vars, constraints, objectives, ranges, eqns
 0 0	# nonlinear constraints, objectives
 0 0	# network constraints: nonlinear, linear
 0 0 0	# nonlinear vars in constraints, objectives, both
 0 0 0 1	# linear network variables; functions; arith, flags
 0 2 0 0 0	# discrete variables: binary, integer, nonlinear (b,c,o)
 2 2	# nonzeros in Jacobian, gradients
 0 0	# max name lengths: constraints, variables
 0 0 0 0 0	# common exprs: b,c,o,c1,o1
C0
n0
O0 1
n0
r
1 2000
b
0 0 5
0 0 3
k1
1
J0 2
0 282
1 400
G0 2
0 10
1 15
